     Program PWSCF v.6.4rc starts on 26Aug2019 at 16:45:29

     K-points division:     npool     =       4
     Waiting for input...
     Reading input from standard input
Warning: card &IONS ignored
Warning: card / ignored
Warning: card &CELL ignored
Warning: card / ignored

     Current dimensions of program PWSCF are:
     Max number of different atomic species (ntypx) = 10
     Max number of k-points (npk) =  40000
     Max angular momentum in pseudopotentials (lmaxx) =  3
               file B.cpi.UPF: wavefunction(s)  2s 2p 3d renormalized
               file As.cpi.UPF: wavefunction(s)  4s 4p 4d renormalized

     Subspace diagonalization in iterative solution of the eigenvalue problem:
     a serial algorithm will be used

     bravais-lattice index     =            0
     lattice parameter (alat)  =       8.9562  a.u.
     unit-cell volume          =     179.6024 (a.u.)^3
     number of atoms/cell      =            2
     number of atomic types    =            2
     number of electrons       =         8.00
     number of Kohn-Sham states=           12
     kinetic-energy cutoff     =      50.0000  Ry
     charge density cutoff     =     200.0000  Ry
     convergence threshold     =      1.0E-10
     mixing beta               =       0.7000
     number of iterations used =            8  plain     mixing
     Exchange-correlation      = SLA  PZ   NOGX NOGC ( 1  1  0  0 0 0)

     celldm(1)=   8.956205  celldm(2)=   0.000000  celldm(3)=   0.000000
     celldm(4)=   0.000000  celldm(5)=   0.000000  celldm(6)=   0.000000

     crystal axes: (cart. coord. in units of alat)
               a(1) = (  -0.500000   0.000000   0.500000 )
               a(2) = (   0.000000   0.500000   0.500000 )
               a(3) = (  -0.500000   0.500000   0.000000 )

     reciprocal axes: (cart. coord. in units 2 pi/alat)
               b(1) = ( -1.000000 -1.000000  1.000000 )
               b(2) = (  1.000000  1.000000  1.000000 )
               b(3) = ( -1.000000  1.000000 -1.000000 )

     PseudoPot. # 1 for B  read from file:
     ./B.cpi.UPF
     MD5 check sum: 858e09cd2823d4a3381ad351fbe5daf8
     Pseudo is Norm-conserving, Zval =  3.0
     Generated using FHI98PP, converted with fhi2upf.x v.5.0.2
     Using radial grid of  991 points,  2 beta functions with:
                l(1) =   0
                l(2) =   1

     PseudoPot. # 2 for As read from file:
     ./As.cpi.UPF
     MD5 check sum: 77982eeacdf728cf28132b225af03d26
     Pseudo is Norm-conserving, Zval =  5.0
     Generated by new atomic code, or converted to UPF format
     Using radial grid of 1142 points,  2 beta functions with:
                l(1) =   0
                l(2) =   1

     atomic species   valence    mass     pseudopotential
        B              3.00    10.81000     B ( 1.00)
        As             5.00    74.92200     As( 1.00)

     24 Sym. Ops. (no inversion) found

                                    s                        frac. trans.

      isym =  1     identity

 cryst.   s( 1) = (     1          0          0      )
                  (     0          1          0      )
                  (     0          0          1      )

 cart.    s( 1) = (  1.0000000  0.0000000  0.0000000 )
                  (  0.0000000  1.0000000  0.0000000 )
                  (  0.0000000  0.0000000  1.0000000 )

      isym =  2     180 deg rotation - cart. axis [0,0,1]

[...]

 cryst.   s( 9) = (     0          0         -1      )
                  (     0          1         -1      )
                  (     1          0         -1      )

 cart.    s( 9) = (  0.0000000  0.0000000  1.0000000 )
                  (  1.0000000  0.0000000  0.0000000 )
                  (  0.0000000  1.0000000  0.0000000 )

[...]

 cryst.   s(10) = (    -1          1          0      )
                  (    -1          0          0      )
                  (    -1          0          1      )

 cart.    s(10) = (  0.0000000  0.0000000  1.0000000 )
                  ( -1.0000000  0.0000000  0.0000000 )
                  (  0.0000000 -1.0000000  0.0000000 )

[...]

      isym = 12     120 deg rotation - cart. axis [-1,-1,1]

[...]

      isym = 13     inv. 180 deg rotation - cart. axis [1,1,0]

[...]

      isym = 24     inv.  90 deg rotation - cart. axis [1,0,0]

 cryst.   s(24) = (    -1          1          0      )
                  (    -1          0          1      )
                  (    -1          0          0      )

 cart.    s(24) = ( -1.0000000  0.0000000  0.0000000 )
                  (  0.0000000  0.0000000  1.0000000 )
                  (  0.0000000 -1.0000000  0.0000000 )

   Cartesian axes

     site n.     atom                  positions (alat units)
         1           As  tau(   1) = (   0.0000000   0.0000000   0.0000000  )
         2           B   tau(   2) = (  -0.2500000   0.2500000   0.2500000  )

   Crystallographic axes

     site n.     atom                  positions (cryst. coord.)
         1           As  tau(   1) = (  0.0000000  0.0000000  0.0000000  )
         2           B   tau(   2) = (  0.2500000  0.2500000  0.2500000  )

     number of k points=    16
                       cart. coord. in units 2pi/alat
        k(    1) = (   0.0000000   0.0000000   0.0000000), wk =   0.0092593
        k(    2) = (  -0.1666667   0.1666667  -0.1666667), wk =   0.0740741
        k(    3) = (  -0.3333333   0.3333333  -0.3333333), wk =   0.0740741
        k(    4) = (   0.5000000  -0.5000000   0.5000000), wk =   0.0370370
        k(    5) = (   0.0000000   0.3333333   0.0000000), wk =   0.0555556
        k(    6) = (  -0.1666667   0.5000000  -0.1666667), wk =   0.2222222
        k(    7) = (   0.6666667  -0.3333333   0.6666667), wk =   0.2222222
        k(    8) = (   0.5000000  -0.1666667   0.5000000), wk =   0.2222222
        k(    9) = (   0.3333333   0.0000000   0.3333333), wk =   0.1111111
        k(   10) = (   0.0000000   0.6666667   0.0000000), wk =   0.0555556
        k(   11) = (   0.8333333  -0.1666667   0.8333333), wk =   0.2222222
        k(   12) = (   0.6666667  -0.0000000   0.6666667), wk =   0.1111111
        k(   13) = (   0.0000000  -1.0000000   0.0000000), wk =   0.0277778
        k(   14) = (   0.6666667  -0.3333333   1.0000000), wk =   0.2222222
        k(   15) = (   0.5000000  -0.1666667   0.8333333), wk =   0.2222222
        k(   16) = (  -0.3333333  -1.0000000   0.0000000), wk =   0.1111111

                       cryst. coord.
        k(    1) = (   0.0000000   0.0000000   0.0000000), wk =   0.0092593
        k(    2) = (   0.0000000   0.0000000   0.1666667), wk =   0.0740741
        k(    3) = (   0.0000000   0.0000000   0.3333333), wk =   0.0740741
        k(    4) = (   0.0000000   0.0000000  -0.5000000), wk =   0.0370370
        k(    5) = (   0.0000000   0.1666667   0.1666667), wk =   0.0555556
        k(    6) = (   0.0000000   0.1666667   0.3333333), wk =   0.2222222
        k(    7) = (   0.0000000   0.1666667  -0.5000000), wk =   0.2222222
        k(    8) = (   0.0000000   0.1666667  -0.3333333), wk =   0.2222222
        k(    9) = (   0.0000000   0.1666667  -0.1666667), wk =   0.1111111
        k(   10) = (   0.0000000   0.3333333   0.3333333), wk =   0.0555556
        k(   11) = (   0.0000000   0.3333333  -0.5000000), wk =   0.2222222
        k(   12) = (   0.0000000   0.3333333  -0.3333333), wk =   0.1111111
        k(   13) = (   0.0000000  -0.5000000  -0.5000000), wk =   0.0277778
        k(   14) = (   0.1666667   0.3333333  -0.5000000), wk =   0.2222222
        k(   15) = (   0.1666667   0.3333333  -0.3333333), wk =   0.2222222
        k(   16) = (   0.1666667  -0.5000000  -0.3333333), wk =   0.1111111

     Initial potential from superposition of free atoms

     starting charge    7.75203, renormalised to    8.00000
     Starting wfcs are   18 randomized atomic wfcs

     Self-consistent Calculation

     iteration #  1     ecut=    50.00 Ry     beta= 0.70
     Davidson diagonalization with overlap
     ethr =  1.00E-02,  avg # of iterations =  4.8

     total energy              =     -18.43173078 Ry
     Harris-Foulkes estimate   =     -18.51896291 Ry
     estimated scf accuracy    <       0.14702608 Ry

[...]

     total energy              =     -18.47209046 Ry
     Harris-Foulkes estimate   =     -18.47209046 Ry
     estimated scf accuracy    <          9.9E-10 Ry

     iteration #  8     ecut=    50.00 Ry     beta= 0.70
     Davidson diagonalization with overlap
     ethr =  1.24E-11,  avg # of iterations =  2.5

     End of self-consistent calculation

          k = 0.0000 0.0000 0.0000 (  1067 PWs)   bands (ev):

    -6.8712   8.6528   8.6528   8.6528  12.0149  12.0149  12.0149  14.0175
    18.5189  21.9440  21.9440  23.4122

     occupation numbers
     1.0000   1.0000   1.0000   1.0000   0.0000   0.0000   0.0000   0.0000
     0.0000   0.0000   0.0000   0.0000

          k =-0.1667 0.1667-0.1667 (  1067 PWs)   bands (ev):

[...]

          k = 0.5000-0.1667 0.8333 (  1072 PWs)   bands (ev):

[...]

          k =-0.3333-1.0000 0.0000 (  1080 PWs)   bands (ev):

    -2.4983   0.4893   3.4078   3.5832  12.4603  12.7357  17.5654  17.8125
    21.1497  24.8490  24.9751  28.4421

     occupation numbers
     1.0000   1.0000   1.0000   1.0000   0.0000   0.0000   0.0000   0.0000
     0.0000   0.0000   0.0000   0.0000

     highest occupied, lowest unoccupied level (ev):     8.6528    9.9217

!    total energy              =     -18.47209046 Ry
     Harris-Foulkes estimate   =     -18.47209046 Ry
     estimated scf accuracy    <          1.7E-11 Ry

     The total energy is the sum of the following terms:

     one-electron contribution =       5.79425789 Ry
     hartree contribution      =       1.22567179 Ry
     xc contribution           =      -5.40054270 Ry
     ewald contribution        =     -20.09147743 Ry

     convergence has been achieved in   8 iterations

     Forces acting on atoms (cartesian axes, Ry/au):

     atom    1 type  2   force =    -0.00000000   -0.00000000    0.00000000
     atom    2 type  1   force =    -0.00000000    0.00000000    0.00000000
     The non-local contrib.  to forces
     atom    1 type  2   force =     0.00000000   -0.00000000    0.00000000
     atom    2 type  1   force =    -0.00000000    0.00000000   -0.00000000
     The ionic contribution  to forces
     atom    1 type  2   force =     0.00000000   -0.00000000   -0.00000000
     atom    2 type  1   force =     0.00000000    0.00000000   -0.00000000
     The local contribution  to forces
     atom    1 type  2   force =    -0.00000000   -0.00000000    0.00000000
     atom    2 type  1   force =    -0.00000000    0.00000000    0.00000000
     The core correction contribution to forces
     atom    1 type  2   force =     0.00000000    0.00000000    0.00000000
     atom    2 type  1   force =     0.00000000    0.00000000    0.00000000
     The Hubbard contrib.    to forces
     atom    1 type  2   force =     0.00000000    0.00000000    0.00000000
     atom    2 type  1   force =     0.00000000    0.00000000    0.00000000
     The SCF correction term to forces
     atom    1 type  2   force =    -0.00000000   -0.00000000    0.00000000
     atom    2 type  1   force =     0.00000000    0.00000000   -0.00000000

     Total force =     0.000000     Total SCF correction =     0.000000

     Computing stress (Cartesian axis) and pressure

          total   stress  (Ry/bohr**3)                   (kbar)     P=    0.14
   0.00000095   0.00000000  -0.00000000          0.14      0.00     -0.00
   0.00000000   0.00000095  -0.00000000          0.00      0.14     -0.00
  -0.00000000   0.00000000   0.00000095         -0.00      0.00      0.14

     kinetic stress (kbar)   4633.81     -0.00     -0.00
                               -0.00   4633.81      0.00
                               -0.00      0.00   4633.81

     local   stress (kbar)   -101.37     -0.00     -0.00
                               -0.00   -101.37     -0.00
                               -0.00     -0.00   -101.37

     nonloc. stress (kbar)   1967.23      0.00     -0.00
                                0.00   1967.23     -0.00
                               -0.00     -0.00   1967.23

     hartree stress (kbar)    334.63     -0.00      0.00
                               -0.00    334.63      0.00
                                0.00      0.00    334.63

     exc-cor stress (kbar)  -1348.79      0.00      0.00
                                0.00  -1348.79      0.00
                                0.00      0.00  -1348.79

     corecor stress (kbar)      0.00      0.00      0.00
                                0.00      0.00      0.00
                                0.00      0.00      0.00

     ewald   stress (kbar)  -5485.37     -0.00     -0.00
                               -0.00  -5485.37      0.00
                               -0.00      0.00  -5485.37

     hubbard stress (kbar)      0.00      0.00      0.00
                                0.00      0.00      0.00
                                0.00      0.00      0.00

     london  stress (kbar)      0.00      0.00      0.00
                                0.00      0.00      0.00
                                0.00      0.00      0.00

     DFT-D3  stress (kbar)      0.00      0.00      0.00
                                0.00      0.00      0.00
                                0.00      0.00      0.00

     XDM     stress (kbar)      0.00      0.00      0.00
                                0.00      0.00      0.00
                                0.00      0.00      0.00

     dft-nl  stress (kbar)      0.00      0.00      0.00
                                0.00      0.00      0.00
                                0.00      0.00      0.00

     TS-vdW  stress (kbar)      0.00      0.00      0.00
                                0.00      0.00      0.00
                                0.00      0.00      0.00

     Writing output data file BAs.save/

     General routines

     Parallel routines

   This run was terminated on:  16:45:31  26Aug2019

   JOB DONE.