     Program PWSCF v.6.6 starts on  2Mar2021 at 10: 0:45

     K-points division:     npool     =      17
     Waiting for input...
     Reading input from standard input
Warning: card &CELL ignored
Warning: card / ignored

     Current dimensions of program PWSCF are:
     Max number of different atomic species (ntypx) = 10
     Max number of k-points (npk) =  40000
     Max angular momentum in pseudopotentials (lmaxx) =  3

     Subspace diagonalization in iterative solution of the eigenvalue problem:
     a serial algorithm will be used

     Message from routine setup:
     using ibrav=0 with symmetry is DISCOURAGED, use correct ibrav instead

     bravais-lattice index     =            0
     lattice parameter (alat)  =      10.1645  a.u.
     unit-cell volume          =     262.5448 (a.u.)^3
     number of atoms/cell      =            2
     number of atomic types    =            1
     number of electrons       =         8.00
     number of Kohn-Sham states=           34
     kinetic-energy cutoff     =      40.0000  Ry
     charge density cutoff     =     160.0000  Ry
     convergence threshold     =      1.0E-10
     mixing beta               =       0.7000
     number of iterations used =            8  plain     mixing
     Exchange-correlation= SLA  PZ   NOGX NOGC
                           (   1   1   0   0   0   0   0)

     celldm(1)=  10.164542  celldm(2)=   0.000000  celldm(3)=   0.000000
     celldm(4)=   0.000000  celldm(5)=   0.000000  celldm(6)=   0.000000

     crystal axes: (cart. coord. in units of alat)
               a(1) = (  -0.500000   0.000000   0.500000 )
               a(2) = (   0.000000   0.500000   0.500000 )
               a(3) = (  -0.500000   0.500000   0.000000 )

     reciprocal axes: (cart. coord. in units 2 pi/alat)
               b(1) = ( -1.000000 -1.000000  1.000000 )
               b(2) = (  1.000000  1.000000  1.000000 )
               b(3) = ( -1.000000  1.000000 -1.000000 )

     PseudoPot. # 1 for Si read from file:
     ./si.cpi.UPF
     MD5 check sum: b49e38a2651755062821566f72dc82b2
     Pseudo is Norm-conserving, Zval =  4.0
     Generated by new atomic code, or converted to UPF format
     Using radial grid of  495 points,  2 beta functions with:
                l(1) =   1
                l(2) =   2

     atomic species   valence    mass     pseudopotential
        Si             4.00    28.08600     Si( 1.00)

     48 Sym. Ops., with inversion, found (36 have fractional translation)

                                    s                        frac. trans.

      isym =  1     identity

 cryst.   s( 1) = (     1          0          0      )
                  (     0          1          0      )
                  (     0          0          1      )

 cart.    s( 1) = (  1.0000000  0.0000000  0.0000000 )
                  (  0.0000000  1.0000000  0.0000000 )
                  (  0.0000000  0.0000000  1.0000000 )

      isym =  2     180 deg rotation - cart. axis [0,0,1]

 cryst.   s( 2) = (     0          1         -1      )    f =(  0.0000000 )
                  (     1          0         -1      )       (  0.0000000 )
                  (     0          0         -1      )       ( -0.5000000 )

 cart.    s( 2) = ( -1.0000000  0.0000000  0.0000000 )    f =(  0.2500000 )
                  (  0.0000000 -1.0000000  0.0000000 )       ( -0.2500000 )
                  (  0.0000000  0.0000000  1.0000000 )       (  0.0000000 )

[...]

 cryst.   s( 8) = (     1          0         -1      )    f =( -0.5000000 )
                  (     1          0          0      )       (  0.0000000 )
                  (     1         -1          0      )       (  0.0000000 )

 cart.    s( 8) = (  0.0000000 -1.0000000  0.0000000 )    f =(  0.2500000 )
                  (  1.0000000  0.0000000  0.0000000 )       (  0.0000000 )
                  (  0.0000000  0.0000000  1.0000000 )       ( -0.2500000 )

[...]

 cryst.   s( 9) = (    -1          0          0      )
                  (     0          0         -1      )
                  (     0         -1          0      )

 cart.    s( 9) = (  0.0000000  0.0000000  1.0000000 )
                  (  0.0000000 -1.0000000  0.0000000 )
                  (  1.0000000  0.0000000  0.0000000 )

[...]

 cryst.   s(10) = (     1          0          0      )    f =( -0.5000000 )
                  (     1         -1          0      )       (  0.0000000 )
                  (     1          0         -1      )       (  0.0000000 )

 cart.    s(10) = (  0.0000000  0.0000000 -1.0000000 )    f =(  0.2500000 )
                  (  0.0000000 -1.0000000  0.0000000 )       (  0.0000000 )
                  ( -1.0000000  0.0000000  0.0000000 )       ( -0.2500000 )

[...]

 cryst.   s(14) = (     0          0         -1      )
                  (     0         -1          0      )
                  (    -1          0          0      )

 cart.    s(14) = ( -1.0000000  0.0000000  0.0000000 )
                  (  0.0000000  0.0000000 -1.0000000 )
                  (  0.0000000 -1.0000000  0.0000000 )

[...]

      isym = 24     120 deg rotation - cart. axis [-1,-1,1]

[...]

      isym = 25     inversion

[...]

      isym = 26     inv. 180 deg rotation - cart. axis [0,0,1]

[...]

 cryst.   s(47) = (     0          0         -1      )
                  (    -1          0          0      )
                  (     0         -1          0      )

 cart.    s(47) = (  0.0000000  0.0000000  1.0000000 )
                  (  1.0000000  0.0000000  0.0000000 )
                  (  0.0000000 -1.0000000  0.0000000 )

      isym = 48     inv. 120 deg rotation - cart. axis [-1,-1,1]

 cryst.   s(48) = (    -1          1          0      )    f =(  0.0000000 )
                  (     0          1         -1      )       ( -0.5000000 )
                  (     0          1          0      )       (  0.0000000 )

 cart.    s(48) = (  0.0000000  0.0000000  1.0000000 )    f =(  0.0000000 )
                  ( -1.0000000  0.0000000  0.0000000 )       ( -0.2500000 )
                  (  0.0000000  1.0000000  0.0000000 )       ( -0.2500000 )

   Cartesian axes

     site n.     atom                  positions (alat units)
         1           Si  tau(   1) = (   0.1250000  -0.1250000  -0.1250000  )
         2           Si  tau(   2) = (  -0.1250000   0.1250000   0.1250000  )

   Crystallographic axes

     site n.     atom                  positions (cryst. coord.)
         1           Si  tau(   1) = ( -0.1250000 -0.1250000 -0.1250000  )
         2           Si  tau(   2) = (  0.1250000  0.1250000  0.1250000  )

     number of k points=    60
                       cart. coord. in units 2pi/alat
        k(    1) = (  -0.0625000   0.0625000   0.0625000), wk =   0.0078125
        k(    2) = (  -0.1875000   0.1875000  -0.0625000), wk =   0.0234375
        k(    3) = (  -0.3125000   0.3125000  -0.1875000), wk =   0.0234375
        k(    4) = (  -0.4375000   0.4375000  -0.3125000), wk =   0.0234375
        k(    5) = (   0.4375000  -0.4375000   0.5625000), wk =   0.0234375
        k(    6) = (   0.3125000  -0.3125000   0.4375000), wk =   0.0234375
        k(    7) = (   0.1875000  -0.1875000   0.3125000), wk =   0.0234375
        k(    8) = (   0.0625000  -0.0625000   0.1875000), wk =   0.0234375
        k(    9) = (  -0.0625000   0.3125000   0.0625000), wk =   0.0234375
        k(   10) = (  -0.1875000   0.4375000  -0.0625000), wk =   0.0468750
        k(   11) = (  -0.3125000   0.5625000  -0.1875000), wk =   0.0468750
        k(   12) = (   0.5625000  -0.3125000   0.6875000), wk =   0.0468750
        k(   13) = (   0.4375000  -0.1875000   0.5625000), wk =   0.0468750
        k(   14) = (   0.3125000  -0.0625000   0.4375000), wk =   0.0468750
        k(   15) = (   0.1875000   0.0625000   0.3125000), wk =   0.0468750
        k(   16) = (  -0.0625000   0.5625000   0.0625000), wk =   0.0234375
        k(   17) = (  -0.1875000   0.6875000  -0.0625000), wk =   0.0468750
        k(   18) = (   0.6875000  -0.1875000   0.8125000), wk =   0.0468750
        k(   19) = (   0.5625000  -0.0625000   0.6875000), wk =   0.0468750
        k(   20) = (   0.4375000   0.0625000   0.5625000), wk =   0.0468750
        k(   21) = (   0.3125000   0.1875000   0.4375000), wk =   0.0468750
        k(   22) = (  -0.0625000   0.8125000   0.0625000), wk =   0.0234375
        k(   23) = (   0.8125000  -0.0625000   0.9375000), wk =   0.0468750
        k(   24) = (   0.6875000   0.0625000   0.8125000), wk =   0.0468750
        k(   25) = (   0.5625000   0.1875000   0.6875000), wk =   0.0468750
        k(   26) = (   0.4375000   0.3125000   0.5625000), wk =   0.0468750
        k(   27) = (  -0.0625000  -0.9375000   0.0625000), wk =   0.0234375
        k(   28) = (  -0.1875000  -0.8125000  -0.0625000), wk =   0.0468750
        k(   29) = (  -0.3125000  -0.6875000  -0.1875000), wk =   0.0468750
        k(   30) = (  -0.0625000  -0.6875000   0.0625000), wk =   0.0234375
        k(   31) = (  -0.1875000  -0.5625000  -0.0625000), wk =   0.0468750
        k(   32) = (  -0.0625000  -0.4375000   0.0625000), wk =   0.0234375
        k(   33) = (  -0.1875000   0.1875000   0.1875000), wk =   0.0078125
        k(   34) = (  -0.3125000   0.3125000   0.0625000), wk =   0.0234375
        k(   35) = (  -0.4375000   0.4375000  -0.0625000), wk =   0.0234375
        k(   36) = (   0.4375000  -0.4375000   0.8125000), wk =   0.0234375
        k(   37) = (   0.3125000  -0.3125000   0.6875000), wk =   0.0234375
        k(   38) = (   0.1875000  -0.1875000   0.5625000), wk =   0.0234375
        k(   39) = (  -0.1875000   0.4375000   0.1875000), wk =   0.0234375
        k(   40) = (  -0.3125000   0.5625000   0.0625000), wk =   0.0468750
        k(   41) = (   0.5625000  -0.3125000   0.9375000), wk =   0.0468750
        k(   42) = (   0.4375000  -0.1875000   0.8125000), wk =   0.0468750
        k(   43) = (   0.3125000  -0.0625000   0.6875000), wk =   0.0468750
        k(   44) = (  -0.1875000   0.6875000   0.1875000), wk =   0.0234375
        k(   45) = (   0.6875000  -0.1875000   1.0625000), wk =   0.0468750
        k(   46) = (   0.5625000  -0.0625000   0.9375000), wk =   0.0468750
        k(   47) = (   0.4375000   0.0625000   0.8125000), wk =   0.0468750
        k(   48) = (  -0.1875000  -1.0625000   0.1875000), wk =   0.0234375
        k(   49) = (  -0.3125000  -0.9375000   0.0625000), wk =   0.0468750
        k(   50) = (  -0.1875000  -0.8125000   0.1875000), wk =   0.0234375
        k(   51) = (  -0.3125000   0.3125000   0.3125000), wk =   0.0078125
        k(   52) = (  -0.4375000   0.4375000   0.1875000), wk =   0.0234375
        k(   53) = (   0.4375000  -0.4375000   1.0625000), wk =   0.0234375
        k(   54) = (   0.3125000  -0.3125000   0.9375000), wk =   0.0234375
        k(   55) = (  -0.3125000   0.5625000   0.3125000), wk =   0.0234375
        k(   56) = (   0.5625000  -0.3125000   1.1875000), wk =   0.0468750
        k(   57) = (   0.4375000  -0.1875000   1.0625000), wk =   0.0468750
        k(   58) = (  -0.3125000  -1.1875000   0.3125000), wk =   0.0234375
        k(   59) = (  -0.4375000   0.4375000   0.4375000), wk =   0.0078125
        k(   60) = (   0.4375000  -0.4375000   1.3125000), wk =   0.0234375

                       cryst. coord.
        k(    1) = (   0.0625000   0.0625000   0.0625000), wk =   0.0078125
        k(    2) = (   0.0625000   0.0625000   0.1875000), wk =   0.0234375
        k(    3) = (   0.0625000   0.0625000   0.3125000), wk =   0.0234375
        k(    4) = (   0.0625000   0.0625000   0.4375000), wk =   0.0234375
        k(    5) = (   0.0625000   0.0625000  -0.4375000), wk =   0.0234375
        k(    6) = (   0.0625000   0.0625000  -0.3125000), wk =   0.0234375
        k(    7) = (   0.0625000   0.0625000  -0.1875000), wk =   0.0234375
        k(    8) = (   0.0625000   0.0625000  -0.0625000), wk =   0.0234375
        k(    9) = (   0.0625000   0.1875000   0.1875000), wk =   0.0234375
        k(   10) = (   0.0625000   0.1875000   0.3125000), wk =   0.0468750
        k(   11) = (   0.0625000   0.1875000   0.4375000), wk =   0.0468750
        k(   12) = (   0.0625000   0.1875000  -0.4375000), wk =   0.0468750
        k(   13) = (   0.0625000   0.1875000  -0.3125000), wk =   0.0468750
        k(   14) = (   0.0625000   0.1875000  -0.1875000), wk =   0.0468750
        k(   15) = (   0.0625000   0.1875000  -0.0625000), wk =   0.0468750
        k(   16) = (   0.0625000   0.3125000   0.3125000), wk =   0.0234375
        k(   17) = (   0.0625000   0.3125000   0.4375000), wk =   0.0468750
        k(   18) = (   0.0625000   0.3125000  -0.4375000), wk =   0.0468750
        k(   19) = (   0.0625000   0.3125000  -0.3125000), wk =   0.0468750
        k(   20) = (   0.0625000   0.3125000  -0.1875000), wk =   0.0468750
        k(   21) = (   0.0625000   0.3125000  -0.0625000), wk =   0.0468750
        k(   22) = (   0.0625000   0.4375000   0.4375000), wk =   0.0234375
        k(   23) = (   0.0625000   0.4375000  -0.4375000), wk =   0.0468750
        k(   24) = (   0.0625000   0.4375000  -0.3125000), wk =   0.0468750
        k(   25) = (   0.0625000   0.4375000  -0.1875000), wk =   0.0468750
        k(   26) = (   0.0625000   0.4375000  -0.0625000), wk =   0.0468750
        k(   27) = (   0.0625000  -0.4375000  -0.4375000), wk =   0.0234375
        k(   28) = (   0.0625000  -0.4375000  -0.3125000), wk =   0.0468750
        k(   29) = (   0.0625000  -0.4375000  -0.1875000), wk =   0.0468750
        k(   30) = (   0.0625000  -0.3125000  -0.3125000), wk =   0.0234375
        k(   31) = (   0.0625000  -0.3125000  -0.1875000), wk =   0.0468750
        k(   32) = (   0.0625000  -0.1875000  -0.1875000), wk =   0.0234375
        k(   33) = (   0.1875000   0.1875000   0.1875000), wk =   0.0078125
        k(   34) = (   0.1875000   0.1875000   0.3125000), wk =   0.0234375
        k(   35) = (   0.1875000   0.1875000   0.4375000), wk =   0.0234375
        k(   36) = (   0.1875000   0.1875000  -0.4375000), wk =   0.0234375
        k(   37) = (   0.1875000   0.1875000  -0.3125000), wk =   0.0234375
        k(   38) = (   0.1875000   0.1875000  -0.1875000), wk =   0.0234375
        k(   39) = (   0.1875000   0.3125000   0.3125000), wk =   0.0234375
        k(   40) = (   0.1875000   0.3125000   0.4375000), wk =   0.0468750
        k(   41) = (   0.1875000   0.3125000  -0.4375000), wk =   0.0468750
        k(   42) = (   0.1875000   0.3125000  -0.3125000), wk =   0.0468750
        k(   43) = (   0.1875000   0.3125000  -0.1875000), wk =   0.0468750
        k(   44) = (   0.1875000   0.4375000   0.4375000), wk =   0.0234375
        k(   45) = (   0.1875000   0.4375000  -0.4375000), wk =   0.0468750
        k(   46) = (   0.1875000   0.4375000  -0.3125000), wk =   0.0468750
        k(   47) = (   0.1875000   0.4375000  -0.1875000), wk =   0.0468750
        k(   48) = (   0.1875000  -0.4375000  -0.4375000), wk =   0.0234375
        k(   49) = (   0.1875000  -0.4375000  -0.3125000), wk =   0.0468750
        k(   50) = (   0.1875000  -0.3125000  -0.3125000), wk =   0.0234375
        k(   51) = (   0.3125000   0.3125000   0.3125000), wk =   0.0078125
        k(   52) = (   0.3125000   0.3125000   0.4375000), wk =   0.0234375
        k(   53) = (   0.3125000   0.3125000  -0.4375000), wk =   0.0234375
        k(   54) = (   0.3125000   0.3125000  -0.3125000), wk =   0.0234375
        k(   55) = (   0.3125000   0.4375000   0.4375000), wk =   0.0234375
        k(   56) = (   0.3125000   0.4375000  -0.4375000), wk =   0.0468750
        k(   57) = (   0.3125000   0.4375000  -0.3125000), wk =   0.0468750
        k(   58) = (   0.3125000  -0.4375000  -0.4375000), wk =   0.0234375
        k(   59) = (   0.4375000   0.4375000   0.4375000), wk =   0.0078125
        k(   60) = (   0.4375000   0.4375000  -0.4375000), wk =   0.0234375

     Initial potential from superposition of free atoms

     starting charge    7.51826, renormalised to    8.00000
     Starting wfcs are   18 randomized atomic wfcs +   16 random wfcs

     Self-consistent Calculation

     iteration #  1     ecut=    40.00 Ry     beta= 0.70
     Davidson diagonalization with overlap
     ethr =  1.00E-02,  avg # of iterations =  5.1

     Threshold (ethr) on eigenvalues was too large:
     Diagonalizing with lowered threshold

     Davidson diagonalization with overlap
     ethr =  5.17E-04,  avg # of iterations =  4.2

     total energy              =     -15.89127995 Ry
     estimated scf accuracy    <       0.04137532 Ry

[...]

     total energy              =     -15.89240387 Ry
     estimated scf accuracy    <          2.0E-10 Ry

     iteration #  6     ecut=    40.00 Ry     beta= 0.70
     Davidson diagonalization with overlap
     ethr =  2.53E-12,  avg # of iterations =  2.7

     End of self-consistent calculation

          k =-0.0625 0.0625 0.0625 (  1115 PWs)   bands (ev):

    -5.8106   5.7554   6.2053   6.2053   8.9332   8.9943   8.9943  10.1220
    13.9126  13.9126  14.3331  17.3636  17.9232  17.9232  21.9381  28.8392
    28.9352  28.9352  30.3085  30.3085  32.0625  32.0625  32.3102  36.6842
    37.2264  37.2264  40.4069  40.9827  40.9827  44.5090  44.5090  44.5703
    46.7257  46.7257

     occupation numbers
     1.0000   1.0000   1.0000   1.0000   0.0000   0.0000   0.0000   0.0000
     0.0000   0.0000   0.0000   0.0000   0.0000   0.0000   0.0000   0.0000
     0.0000   0.0000   0.0000   0.0000   0.0000   0.0000   0.0000   0.0000
     0.0000   0.0000   0.0000   0.0000   0.0000   0.0000   0.0000   0.0000
     0.0000   0.0000

[...]

          k = 0.4375-0.4375 0.5625 (  1130 PWs)   bands (ev):

[...]

          k =-0.4375 0.4375 0.4375 (  1131 PWs)   bands (ev):

[...]

          k = 0.4375-0.4375 1.3125 (  1122 PWs)   bands (ev):

    -3.2972  -0.6948   3.8288   4.8202   8.5187   9.8090  10.2538  14.4884
    15.1889  15.6210  17.2787  19.3119  19.7196  20.3686  24.8083  26.3631
    27.0851  27.4336  28.2495  28.4639  31.7018  32.2997  32.7256  33.9991
    34.1054  35.5150  36.7211  37.0085  39.5291  40.0132  40.6756  41.1795
    43.8372  44.6289

     occupation numbers
     1.0000   1.0000   1.0000   1.0000   0.0000   0.0000   0.0000   0.0000
     0.0000   0.0000   0.0000   0.0000   0.0000   0.0000   0.0000   0.0000
     0.0000   0.0000   0.0000   0.0000   0.0000   0.0000   0.0000   0.0000
     0.0000   0.0000   0.0000   0.0000   0.0000   0.0000   0.0000   0.0000
     0.0000   0.0000

     highest occupied, lowest unoccupied level (ev):     6.2053    6.9068

!    total energy              =     -15.89240387 Ry
     estimated scf accuracy    <          3.1E-13 Ry

     The total energy is the sum of the following terms:
     one-electron contribution =       4.81703132 Ry
     hartree contribution      =       1.07069086 Ry
     xc contribution           =      -4.82141413 Ry
     ewald contribution        =     -16.95871192 Ry

     convergence has been achieved in   6 iterations

     Forces acting on atoms (cartesian axes, Ry/au):

     atom    1 type  1   force =     0.00000000    0.00000000    0.00000000
     atom    2 type  1   force =     0.00000000    0.00000000    0.00000000
     The non-local contrib.  to forces
     atom    1 type  1   force =     0.00000000    0.00000000   -0.00000000
     atom    2 type  1   force =     0.00000000   -0.00000000    0.00000000
     The ionic contribution  to forces
     atom    1 type  1   force =     0.00000000    0.00000000    0.00000000
     atom    2 type  1   force =    -0.00000000    0.00000000   -0.00000000
     The local contribution  to forces
     atom    1 type  1   force =     0.00000000   -0.00000000   -0.00000000
     atom    2 type  1   force =    -0.00000000    0.00000000    0.00000000
     The core correction contribution to forces
     atom    1 type  1   force =     0.00000000    0.00000000    0.00000000
     atom    2 type  1   force =     0.00000000    0.00000000    0.00000000
     The Hubbard contrib.    to forces
     atom    1 type  1   force =     0.00000000    0.00000000    0.00000000
     atom    2 type  1   force =     0.00000000    0.00000000    0.00000000
     The SCF correction term to forces
     atom    1 type  1   force =    -0.00000000    0.00000000    0.00000000
     atom    2 type  1   force =     0.00000000   -0.00000000    0.00000000

     Total force =     0.000000     Total SCF correction =     0.000000

     Computing stress (Cartesian axis) and pressure

          total   stress  (Ry/bohr**3)                   (kbar)     P=        0.02
   0.00000014   0.00000000   0.00000000            0.02        0.00        0.00
   0.00000000   0.00000014   0.00000000            0.00        0.02        0.00
   0.00000000   0.00000000   0.00000014            0.00        0.00        0.02

     kinetic stress (kbar)   2284.90      0.00     -0.00
                                0.00   2284.90      0.00
                               -0.00      0.00   2284.90

     local   stress (kbar)   1943.57      0.00      0.00
                                0.00   1943.57      0.00
                                0.00      0.00   1943.57

     nonloc. stress (kbar)   -439.90      0.00     -0.00
                               -0.00   -439.90     -0.00
                                0.00      0.00   -439.90

     hartree stress (kbar)    199.97     -0.00     -0.00
                               -0.00    199.97      0.00
                               -0.00      0.00    199.97

     exc-cor stress (kbar)   -821.17      0.00      0.00
                                0.00   -821.17      0.00
                                0.00      0.00   -821.17

     corecor stress (kbar)      0.00      0.00      0.00
                                0.00      0.00      0.00
                                0.00      0.00      0.00

     ewald   stress (kbar)  -3167.35     -0.00     -0.00
                               -0.00  -3167.35      0.00
                               -0.00      0.00  -3167.35

     hubbard stress (kbar)      0.00      0.00      0.00
                                0.00      0.00      0.00
                                0.00      0.00      0.00

     DFT-D   stress (kbar)      0.00      0.00      0.00
                                0.00      0.00      0.00
                                0.00      0.00      0.00

     XDM     stress (kbar)      0.00      0.00      0.00
                                0.00      0.00      0.00
                                0.00      0.00      0.00

     dft-nl  stress (kbar)      0.00      0.00      0.00
                                0.00      0.00      0.00
                                0.00      0.00      0.00

     TS-vdW  stress (kbar)      0.00      0.00      0.00
                                0.00      0.00      0.00
                                0.00      0.00      0.00

     Writing output data file ./Si.save/

     General routines

     Parallel routines

   This run was terminated on:  10: 0:56   2Mar2021

   JOB DONE.