     Program PWSCF v.6.4rc starts on 26Aug2019 at 17:11:18

     K-points division:     npool     =       4
     Waiting for input...
     Reading input from standard input
Warning: card &IONS ignored
Warning: card / ignored
Warning: card &CELL ignored
Warning: card / ignored

     Current dimensions of program PWSCF are:
     Max number of different atomic species (ntypx) = 10
     Max number of k-points (npk) =  40000
     Max angular momentum in pseudopotentials (lmaxx) =  3
               file B.cpi.UPF: wavefunction(s)  2s 2p 3d renormalized
               file As.cpi.UPF: wavefunction(s)  4s 4p 4d renormalized

     Subspace diagonalization in iterative solution of the eigenvalue problem:
     a serial algorithm will be used

     bravais-lattice index     =            0
     lattice parameter (alat)  =       8.9562  a.u.
     unit-cell volume          =     182.2663 (a.u.)^3
     number of atoms/cell      =            2
     number of atomic types    =            2
     number of electrons       =         8.00
     number of Kohn-Sham states=           24
     kinetic-energy cutoff     =      50.0000  Ry
     charge density cutoff     =     200.0000  Ry
     convergence threshold     =      1.0E-10
     mixing beta               =       0.7000
     number of iterations used =            8  plain     mixing
     Exchange-correlation      = SLA  PZ   NOGX NOGC ( 1  1  0  0 0 0)

     celldm(1)=   8.956205  celldm(2)=   0.000000  celldm(3)=   0.000000
     celldm(4)=   0.000000  celldm(5)=   0.000000  celldm(6)=   0.000000

     crystal axes: (cart. coord. in units of alat)
               a(1) = (  -0.505000   0.000000   0.497418 )
               a(2) = (   0.000000   0.505000   0.497418 )
               a(3) = (  -0.505000   0.505000   0.000000 )

     reciprocal axes: (cart. coord. in units 2 pi/alat)
               b(1) = ( -0.990099 -0.990099  1.005191 )
               b(2) = (  0.990099  0.990099  1.005191 )
               b(3) = ( -0.990099  0.990099 -1.005191 )

     PseudoPot. # 1 for B  read from file:
     ./B.cpi.UPF
     MD5 check sum: 858e09cd2823d4a3381ad351fbe5daf8
     Pseudo is Norm-conserving, Zval =  3.0
     Generated using FHI98PP, converted with fhi2upf.x v.5.0.2
     Using radial grid of  991 points,  2 beta functions with:
                l(1) =   0
                l(2) =   1

     PseudoPot. # 2 for As read from file:
     ./As.cpi.UPF
     MD5 check sum: 77982eeacdf728cf28132b225af03d26
     Pseudo is Norm-conserving, Zval =  5.0
     Generated by new atomic code, or converted to UPF format
     Using radial grid of 1142 points,  2 beta functions with:
                l(1) =   0
                l(2) =   1

     atomic species   valence    mass     pseudopotential
        B              3.00    10.81000     B ( 1.00)
        As             5.00    74.92200     As( 1.00)

      8 Sym. Ops. (no inversion) found

                                    s                        frac. trans.

      isym =  1     identity

 cryst.   s( 1) = (     1          0          0      )
                  (     0          1          0      )
                  (     0          0          1      )

 cart.    s( 1) = (  1.0000000  0.0000000  0.0000000 )
                  (  0.0000000  1.0000000  0.0000000 )
                  (  0.0000000  0.0000000  1.0000000 )

      isym =  2     180 deg rotation - cart. axis [0,0,1]

[...]

      isym =  4     180 deg rotation - cart. axis [1,0,0]

[...]

      isym =  5     inv. 180 deg rotation - cart. axis [1,1,0]

[...]

      isym =  8     inv.  90 deg rotation - cart. axis [0,0,1]

 cryst.   s( 8) = (    -1          0          1      )
                  (    -1          0          0      )
                  (    -1          1          0      )

 cart.    s( 8) = (  0.0000000  1.0000000  0.0000000 )
                  ( -1.0000000  0.0000000  0.0000000 )
                  (  0.0000000  0.0000000 -1.0000000 )

   Cartesian axes

     site n.     atom                  positions (alat units)
         1           As  tau(   1) = (   0.0000000   0.0000000   0.0000000  )
         2           B   tau(   2) = (  -0.2525000   0.2525000   0.2487090  )

   Crystallographic axes

     site n.     atom                  positions (cryst. coord.)
         1           As  tau(   1) = (  0.0000000  0.0000000  0.0000000  )
         2           B   tau(   2) = (  0.2500000  0.2500000  0.2500000  )

     number of k points=   163
                       cart. coord. in units 2pi/alat
        k(    1) = (   0.0000000   0.0000000   0.0000000), wk =   0.0011574
        k(    2) = (  -0.0825083   0.0825083  -0.0837659), wk =   0.0092593
        k(    3) = (  -0.1650165   0.1650165  -0.1675318), wk =   0.0092593
        k(    4) = (  -0.2475248   0.2475248  -0.2512977), wk =   0.0092593
        k(    5) = (  -0.3300330   0.3300330  -0.3350636), wk =   0.0092593
        k(    6) = (  -0.4125413   0.4125413  -0.4188295), wk =   0.0092593
        k(    7) = (   0.4950495  -0.4950495   0.5025954), wk =   0.0046296
        k(    8) = (   0.0000000   0.1650165   0.0000000), wk =   0.0046296
        k(    9) = (  -0.0825083   0.2475248  -0.0837659), wk =   0.0185185
        k(   10) = (  -0.1650165   0.3300330  -0.1675318), wk =   0.0185185
        k(   11) = (  -0.2475248   0.4125413  -0.2512977), wk =   0.0185185
        k(   12) = (  -0.3300330   0.4950495  -0.3350636), wk =   0.0185185
        k(   13) = (   0.5775578  -0.4125413   0.5863613), wk =   0.0185185
        k(   14) = (   0.4950495  -0.3300330   0.5025954), wk =   0.0185185
        k(   15) = (   0.4125413  -0.2475248   0.4188295), wk =   0.0185185
        k(   16) = (   0.3300330  -0.1650165   0.3350636), wk =   0.0185185
        k(   17) = (   0.2475248  -0.0825083   0.2512977), wk =   0.0185185
        k(   18) = (   0.1650165  -0.0000000   0.1675318), wk =   0.0092593
        k(   19) = (   0.0000000   0.3300330   0.0000000), wk =   0.0046296
        k(   20) = (  -0.0825083   0.4125413  -0.0837659), wk =   0.0185185
        k(   21) = (  -0.1650165   0.4950495  -0.1675318), wk =   0.0185185
        k(   22) = (  -0.2475248   0.5775578  -0.2512977), wk =   0.0185185
        k(   23) = (   0.6600660  -0.3300330   0.6701272), wk =   0.0185185
        k(   24) = (   0.5775578  -0.2475248   0.5863613), wk =   0.0185185
        k(   25) = (   0.4950495  -0.1650165   0.5025954), wk =   0.0185185
        k(   26) = (   0.4125413  -0.0825083   0.4188295), wk =   0.0185185
        k(   27) = (   0.3300330   0.0000000   0.3350636), wk =   0.0092593
        k(   28) = (   0.0000000   0.4950495   0.0000000), wk =   0.0046296
        k(   29) = (  -0.0825083   0.5775578  -0.0837659), wk =   0.0185185
        k(   30) = (  -0.1650165   0.6600660  -0.1675318), wk =   0.0185185
        k(   31) = (   0.7425743  -0.2475248   0.7538931), wk =   0.0185185
        k(   32) = (   0.6600660  -0.1650165   0.6701272), wk =   0.0185185
        k(   33) = (   0.5775578  -0.0825083   0.5863613), wk =   0.0185185
        k(   34) = (   0.4950495   0.0000000   0.5025954), wk =   0.0092593
        k(   35) = (   0.0000000   0.6600660   0.0000000), wk =   0.0046296
        k(   36) = (  -0.0825083   0.7425743  -0.0837659), wk =   0.0185185
        k(   37) = (   0.8250825  -0.1650165   0.8376590), wk =   0.0185185
        k(   38) = (   0.7425743  -0.0825083   0.7538931), wk =   0.0185185
        k(   39) = (   0.6600660  -0.0000000   0.6701272), wk =   0.0092593
        k(   40) = (   0.0000000   0.8250825   0.0000000), wk =   0.0046296
        k(   41) = (   0.9075908  -0.0825083   0.9214249), wk =   0.0185185
        k(   42) = (   0.8250825   0.0000000   0.8376590), wk =   0.0092593
        k(   43) = (   0.0000000  -0.9900990   0.0000000), wk =   0.0023148
        k(   44) = (   0.0000000   0.0000000   0.1675318), wk =   0.0023148
        k(   45) = (  -0.1650165   0.1650165   0.0000000), wk =   0.0046296
        k(   46) = (  -0.2475248   0.2475248  -0.0837659), wk =   0.0092593
        k(   47) = (  -0.3300330   0.3300330  -0.1675318), wk =   0.0092593
        k(   48) = (  -0.4125413   0.4125413  -0.2512977), wk =   0.0092593
        k(   49) = (   0.4950495  -0.4950495   0.6701272), wk =   0.0092593
        k(   50) = (   0.4125413  -0.4125413   0.5863613), wk =   0.0092593
        k(   51) = (   0.3300330  -0.3300330   0.5025954), wk =   0.0092593
        k(   52) = (   0.2475248  -0.2475248   0.4188295), wk =   0.0092593
        k(   53) = (   0.1650165  -0.1650165   0.3350636), wk =   0.0092593
        k(   54) = (   0.0825083  -0.0825083   0.2512977), wk =   0.0092593
        k(   55) = (  -0.1650165   0.3300330   0.0000000), wk =   0.0092593
        k(   56) = (  -0.2475248   0.4125413  -0.0837659), wk =   0.0185185
        k(   57) = (  -0.3300330   0.4950495  -0.1675318), wk =   0.0185185
        k(   58) = (   0.5775578  -0.4125413   0.7538931), wk =   0.0185185
        k(   59) = (   0.4950495  -0.3300330   0.6701272), wk =   0.0185185
        k(   60) = (   0.4125413  -0.2475248   0.5863613), wk =   0.0185185
[...]
        k(  149) = (   0.0000000  -0.9900990   0.5025954), wk =   0.0023148
        k(  150) = (   0.0000000   0.0000000   0.6701272), wk =   0.0023148
        k(  151) = (   0.3300330  -0.3300330   1.0051908), wk =   0.0046296
        k(  152) = (   0.2475248  -0.2475248   0.9214249), wk =   0.0092593
        k(  153) = (   0.1650165  -0.1650165   0.8376590), wk =   0.0092593
        k(  154) = (   0.0825083  -0.0825083   0.7538931), wk =   0.0092593
        k(  155) = (   0.3300330  -0.1650165   1.0051908), wk =   0.0092593
        k(  156) = (   0.2475248  -0.0825083   0.9214249), wk =   0.0185185
        k(  157) = (   0.1650165  -0.0000000   0.8376590), wk =   0.0092593
        k(  158) = (  -0.6600660  -0.9900990  -0.0000000), wk =   0.0046296
        k(  159) = (   0.0000000   0.0000000   0.8376590), wk =   0.0023148
        k(  160) = (   0.1650165  -0.1650165   1.0051908), wk =   0.0046296
        k(  161) = (   0.0825083  -0.0825083   0.9214249), wk =   0.0092593
        k(  162) = (  -0.8250825  -0.9900990   0.0000000), wk =   0.0046296
        k(  163) = (   0.0000000   0.0000000  -1.0051908), wk =   0.0011574

                       cryst. coord.
        k(    1) = (   0.0000000   0.0000000   0.0000000), wk =   0.0011574
        k(    2) = (   0.0000000   0.0000000   0.0833333), wk =   0.0092593
        k(    3) = (   0.0000000   0.0000000   0.1666667), wk =   0.0092593
        k(    4) = (   0.0000000   0.0000000   0.2500000), wk =   0.0092593
        k(    5) = (   0.0000000   0.0000000   0.3333333), wk =   0.0092593
        k(    6) = (   0.0000000   0.0000000   0.4166667), wk =   0.0092593
        k(    7) = (  -0.0000000  -0.0000000  -0.5000000), wk =   0.0046296
        k(    8) = (   0.0000000   0.0833333   0.0833333), wk =   0.0046296
        k(    9) = (   0.0000000   0.0833333   0.1666667), wk =   0.0185185
        k(   10) = (   0.0000000   0.0833333   0.2500000), wk =   0.0185185
        k(   11) = (   0.0000000   0.0833333   0.3333333), wk =   0.0185185
        k(   12) = (   0.0000000   0.0833333   0.4166667), wk =   0.0185185
        k(   13) = (   0.0000000   0.0833333  -0.5000000), wk =   0.0185185
        k(   14) = (  -0.0000000   0.0833333  -0.4166667), wk =   0.0185185
        k(   15) = (  -0.0000000   0.0833333  -0.3333333), wk =   0.0185185
        k(   16) = (   0.0000000   0.0833333  -0.2500000), wk =   0.0185185
        k(   17) = (  -0.0000000   0.0833333  -0.1666667), wk =   0.0185185
        k(   18) = (   0.0000000   0.0833333  -0.0833333), wk =   0.0092593
        k(   19) = (   0.0000000   0.1666667   0.1666667), wk =   0.0046296
        k(   20) = (   0.0000000   0.1666667   0.2500000), wk =   0.0185185
        k(   21) = (   0.0000000   0.1666667   0.3333333), wk =   0.0185185
        k(   22) = (   0.0000000   0.1666667   0.4166667), wk =   0.0185185
        k(   23) = (   0.0000000   0.1666667  -0.5000000), wk =   0.0185185
        k(   24) = (  -0.0000000   0.1666667  -0.4166667), wk =   0.0185185
        k(   25) = (   0.0000000   0.1666667  -0.3333333), wk =   0.0185185
        k(   26) = (  -0.0000000   0.1666667  -0.2500000), wk =   0.0185185
        k(   27) = (   0.0000000   0.1666667  -0.1666667), wk =   0.0092593
        k(   28) = (   0.0000000   0.2500000   0.2500000), wk =   0.0046296
        k(   29) = (   0.0000000   0.2500000   0.3333333), wk =   0.0185185
        k(   30) = (   0.0000000   0.2500000   0.4166667), wk =   0.0185185
        k(   31) = (  -0.0000000   0.2500000  -0.5000000), wk =   0.0185185
        k(   32) = (   0.0000000   0.2500000  -0.4166667), wk =   0.0185185
        k(   33) = (   0.0000000   0.2500000  -0.3333333), wk =   0.0185185
        k(   34) = (  -0.0000000   0.2500000  -0.2500000), wk =   0.0092593
        k(   35) = (   0.0000000   0.3333333   0.3333333), wk =   0.0046296
        k(   36) = (   0.0000000   0.3333333   0.4166667), wk =   0.0185185
        k(   37) = (  -0.0000000   0.3333333  -0.5000000), wk =   0.0185185
        k(   38) = (  -0.0000000   0.3333333  -0.4166667), wk =   0.0185185
        k(   39) = (   0.0000000   0.3333333  -0.3333333), wk =   0.0092593
        k(   40) = (   0.0000000   0.4166667   0.4166667), wk =   0.0046296
        k(   41) = (   0.0000000   0.4166667  -0.5000000), wk =   0.0185185
        k(   42) = (  -0.0000000   0.4166667  -0.4166667), wk =   0.0092593
        k(   43) = (   0.0000000  -0.5000000  -0.5000000), wk =   0.0023148
        k(   44) = (   0.0833333   0.0833333   0.0000000), wk =   0.0023148
        k(   45) = (   0.0833333   0.0833333   0.1666667), wk =   0.0046296
        k(   46) = (   0.0833333   0.0833333   0.2500000), wk =   0.0092593
        k(   47) = (   0.0833333   0.0833333   0.3333333), wk =   0.0092593
        k(   48) = (   0.0833333   0.0833333   0.4166667), wk =   0.0092593
        k(   49) = (   0.0833333   0.0833333  -0.5000000), wk =   0.0092593
        k(   50) = (   0.0833333   0.0833333  -0.4166667), wk =   0.0092593
        k(   51) = (   0.0833333   0.0833333  -0.3333333), wk =   0.0092593
        k(   52) = (   0.0833333   0.0833333  -0.2500000), wk =   0.0092593
        k(   53) = (   0.0833333   0.0833333  -0.1666667), wk =   0.0092593
        k(   54) = (   0.0833333   0.0833333  -0.0833333), wk =   0.0092593
        k(   55) = (   0.0833333   0.1666667   0.2500000), wk =   0.0092593
        k(   56) = (   0.0833333   0.1666667   0.3333333), wk =   0.0185185
        k(   57) = (   0.0833333   0.1666667   0.4166667), wk =   0.0185185
        k(   58) = (   0.0833333   0.1666667  -0.5000000), wk =   0.0185185
        k(   59) = (   0.0833333   0.1666667  -0.4166667), wk =   0.0185185
        k(   60) = (   0.0833333   0.1666667  -0.3333333), wk =   0.0185185
[...]
        k(  149) = (   0.2500000  -0.2500000  -0.5000000), wk =   0.0023148
        k(  150) = (   0.3333333   0.3333333   0.0000000), wk =   0.0023148
        k(  151) = (   0.3333333   0.3333333  -0.3333333), wk =   0.0046296
        k(  152) = (   0.3333333   0.3333333  -0.2500000), wk =   0.0092593
        k(  153) = (   0.3333333   0.3333333  -0.1666667), wk =   0.0092593
        k(  154) = (   0.3333333   0.3333333  -0.0833333), wk =   0.0092593
        k(  155) = (   0.3333333   0.4166667  -0.2500000), wk =   0.0092593
        k(  156) = (   0.3333333   0.4166667  -0.1666667), wk =   0.0185185
        k(  157) = (   0.3333333   0.4166667  -0.0833333), wk =   0.0092593
        k(  158) = (   0.3333333  -0.5000000  -0.1666667), wk =   0.0046296
        k(  159) = (   0.4166667   0.4166667   0.0000000), wk =   0.0023148
        k(  160) = (   0.4166667   0.4166667  -0.1666667), wk =   0.0046296
        k(  161) = (   0.4166667   0.4166667  -0.0833333), wk =   0.0092593
        k(  162) = (   0.4166667  -0.5000000  -0.0833333), wk =   0.0046296
        k(  163) = (  -0.5000000  -0.5000000   0.0000000), wk =   0.0011574

     Initial potential from superposition of free atoms

     starting charge    7.75203, renormalised to    8.00000
     Starting wfcs are   18 randomized atomic wfcs +    6 random wfcs

     Self-consistent Calculation

     iteration #  1     ecut=    50.00 Ry     beta= 0.70
     Davidson diagonalization with overlap
     ethr =  1.00E-02,  avg # of iterations =  5.2

     total energy              =     -18.43437863 Ry
     Harris-Foulkes estimate   =     -18.51854168 Ry
     estimated scf accuracy    <       0.14189796 Ry

[...]

     total energy              =     -18.47311338 Ry
     Harris-Foulkes estimate   =     -18.47311338 Ry
     estimated scf accuracy    <          1.4E-10 Ry

     iteration #  8     ecut=    50.00 Ry     beta= 0.70
     Davidson diagonalization with overlap
     ethr =  1.75E-12,  avg # of iterations =  3.5

     End of self-consistent calculation

          k = 0.0000 0.0000 0.0000 (  1067 PWs)   bands (ev):

    -6.9395   8.4013   8.4013   8.5451  11.7271  11.8257  11.8257  13.6084
    18.2326  21.4664  21.8772  22.9739  22.9739  23.4905  27.4256  38.2832
    38.2832  38.6008  44.1654  44.7100  44.7100  45.7092  46.2000  48.8097

     occupation numbers
     1.0000   1.0000   1.0000   1.0000   0.0000   0.0000   0.0000   0.0000
     0.0000   0.0000   0.0000   0.0000   0.0000   0.0000   0.0000   0.0000
     0.0000   0.0000   0.0000   0.0000   0.0000   0.0000   0.0000   0.0000

          k =-0.0825 0.0825-0.0838 (  1083 PWs)   bands (ev):

[...]

          k =-0.8251-0.9901 0.0000 (  1086 PWs)   bands (ev):

[...]

          k = 0.0000 0.0000-1.0052 (  1098 PWs)   bands (ev):

    -2.6925   0.1082   4.2872   4.2872   9.7340   9.7684  19.9590  19.9590
    21.5249  26.3139  26.7838  26.7838  27.2054  29.0588  33.9707  33.9707
    34.7880  36.5766  36.8387  36.8387  36.8647  38.0510  46.2747  46.2747

     occupation numbers
     1.0000   1.0000   1.0000   1.0000   0.0000   0.0000   0.0000   0.0000
     0.0000   0.0000   0.0000   0.0000   0.0000   0.0000   0.0000   0.0000
     0.0000   0.0000   0.0000   0.0000   0.0000   0.0000   0.0000   0.0000

     highest occupied, lowest unoccupied level (ev):     8.5451    9.4939

!    total energy              =     -18.47311338 Ry
     Harris-Foulkes estimate   =     -18.47311338 Ry
     estimated scf accuracy    <          1.3E-12 Ry

     The total energy is the sum of the following terms:

     one-electron contribution =       5.66748769 Ry
     hartree contribution      =       1.23443796 Ry
     xc contribution           =      -5.38130262 Ry
     ewald contribution        =     -19.99373641 Ry

     convergence has been achieved in   8 iterations

     Forces acting on atoms (cartesian axes, Ry/au):

     atom    1 type  2   force =     0.00000000    0.00000000    0.00000000
     atom    2 type  1   force =    -0.00000000   -0.00000000   -0.00000000
     The non-local contrib.  to forces
     atom    1 type  2   force =     0.00000000    0.00000000    0.00000000
     atom    2 type  1   force =     0.00000000    0.00000000    0.00000000
     The ionic contribution  to forces
     atom    1 type  2   force =    -0.00000000    0.00000000    0.00000000
     atom    2 type  1   force =     0.00000000   -0.00000000   -0.00000000
     The local contribution  to forces
     atom    1 type  2   force =    -0.00000000    0.00000000    0.00000000
     atom    2 type  1   force =    -0.00000000    0.00000000    0.00000000
     The core correction contribution to forces
     atom    1 type  2   force =     0.00000000    0.00000000    0.00000000
     atom    2 type  1   force =     0.00000000    0.00000000    0.00000000
     The Hubbard contrib.    to forces
     atom    1 type  2   force =     0.00000000    0.00000000    0.00000000
     atom    2 type  1   force =     0.00000000    0.00000000    0.00000000
     The SCF correction term to forces
     atom    1 type  2   force =    -0.00000000   -0.00000000   -0.00000000
     atom    2 type  1   force =    -0.00000000    0.00000000   -0.00000000

     Total force =     0.000000     Total SCF correction =     0.000000

     Computing stress (Cartesian axis) and pressure

          total   stress  (Ry/bohr**3)                   (kbar)     P=  -21.20
  -0.00021581   0.00000000  -0.00000000        -31.75      0.00     -0.00
   0.00000000  -0.00021581   0.00000000          0.00    -31.75      0.00
  -0.00000000   0.00000000  -0.00000076         -0.00      0.00     -0.11

     kinetic stress (kbar)   4519.70     -0.00      0.00
                               -0.00   4519.70      0.00
                                0.00      0.00   4557.61

     local   stress (kbar)   -165.21      0.00     -0.00
                                0.00   -165.21     -0.00
                               -0.00     -0.00    -54.47

     nonloc. stress (kbar)   1945.09      0.00      0.00
                                0.00   1945.09      0.00
                                0.00      0.00   1947.13

     hartree stress (kbar)    338.60      0.00     -0.00
                                0.00    338.60      0.00
                               -0.00      0.00    319.09

     exc-cor stress (kbar)  -1324.21      0.00      0.00
                                0.00  -1324.21      0.00
                                0.00      0.00  -1324.21

     corecor stress (kbar)      0.00      0.00      0.00
                                0.00      0.00      0.00
                                0.00      0.00      0.00

     ewald   stress (kbar)  -5345.73     -0.00     -0.00
                               -0.00  -5345.73      0.00
                               -0.00      0.00  -5445.26

     hubbard stress (kbar)      0.00      0.00      0.00
                                0.00      0.00      0.00
                                0.00      0.00      0.00

     london  stress (kbar)      0.00      0.00      0.00
                                0.00      0.00      0.00
                                0.00      0.00      0.00

     DFT-D3  stress (kbar)      0.00      0.00      0.00
                                0.00      0.00      0.00
                                0.00      0.00      0.00

     XDM     stress (kbar)      0.00      0.00      0.00
                                0.00      0.00      0.00
                                0.00      0.00      0.00

     dft-nl  stress (kbar)      0.00      0.00      0.00
                                0.00      0.00      0.00
                                0.00      0.00      0.00

     TS-vdW  stress (kbar)      0.00      0.00      0.00
                                0.00      0.00      0.00
                                0.00      0.00      0.00

     Writing output data file BAs.save/

     General routines

     Parallel routines

   This run was terminated on:  17:11:49  26Aug2019

   JOB DONE.