     Program PHONON v.6.6 starts on  2Feb2021 at 11:24:57

     K-points division:     npool     =      60
     Waiting for input...
     Reading input from standard input

     Reading xml data from directory:

     ./Si.save/

     IMPORTANT: XC functional enforced from input :
     Exchange-correlation= PZ
                           (   1   1   0   0   0   0   0)
     Any further DFT definition will be discarded
     Please, verify this is what you really want

     Reading collected, re-writing distributed wavefunctions

     Dynamical matrices for ( 8, 8, 8)  uniform grid of q-points
     (  29 q-points):
       N         xq(1)         xq(2)         xq(3)
       1   0.000000000   0.000000000   0.000000000
       2  -0.125000000   0.125000000  -0.125000000
       3  -0.250000000   0.250000000  -0.250000000
       4  -0.375000000   0.375000000  -0.375000000
       5   0.500000000  -0.500000000   0.500000000
       6   0.000000000   0.250000000   0.000000000
       7  -0.125000000   0.375000000  -0.125000000
       8  -0.250000000   0.500000000  -0.250000000
       9   0.625000000  -0.375000000   0.625000000
      10   0.500000000  -0.250000000   0.500000000
      11   0.375000000  -0.125000000   0.375000000
      12   0.250000000   0.000000000   0.250000000
      13   0.000000000   0.500000000   0.000000000
      14  -0.125000000   0.625000000  -0.125000000
      15   0.750000000  -0.250000000   0.750000000
      16   0.625000000  -0.125000000   0.625000000
      17   0.500000000   0.000000000   0.500000000
      18   0.000000000   0.750000000   0.000000000
      19   0.875000000  -0.125000000   0.875000000
      20   0.750000000   0.000000000   0.750000000
      21   0.000000000  -1.000000000   0.000000000
      22  -0.250000000   0.500000000   0.000000000
      23   0.625000000  -0.375000000   0.875000000
      24   0.500000000  -0.250000000   0.750000000
      25   0.750000000  -0.250000000   1.000000000
      26   0.625000000  -0.125000000   0.875000000
      27   0.500000000   0.000000000   0.750000000
      28  -0.250000000  -1.000000000   0.000000000
      29  -0.500000000  -1.000000000   0.000000000

     Saving dvscf to file. Distribute only q points, not irreducible represetations.

     Calculation of q =    0.0000000   0.0000000   0.0000000

     phonons for Si

     bravais-lattice index     =            0
     lattice parameter (alat)  =      10.1645  a.u.
     unit-cell volume          =     262.5448 (a.u.)^3
     number of atoms/cell      =            2
     number of atomic types    =            1
     kinetic-energy cut-off    =      40.0000  Ry
     charge density cut-off    =     160.0000  Ry
     convergence threshold     =      1.0E-15
     beta                      =       0.7000
     number of iterations used =            4
     Exchange-correlation= PZ
                           (   1   1   0   0   0   0   0)

     celldm(1)=   10.16454  celldm(2)=    0.00000  celldm(3)=    0.00000
     celldm(4)=    0.00000  celldm(5)=    0.00000  celldm(6)=    0.00000

     crystal axes: (cart. coord. in units of alat)
               a(1) = ( -0.5000  0.0000  0.5000 )
               a(2) = (  0.0000  0.5000  0.5000 )
               a(3) = ( -0.5000  0.5000  0.0000 )

     reciprocal axes: (cart. coord. in units 2 pi/alat)
               b(1) = ( -1.0000 -1.0000  1.0000 )
               b(2) = (  1.0000  1.0000  1.0000 )
               b(3) = ( -1.0000  1.0000 -1.0000 )

     Atoms inside the unit cell:

     Cartesian axes

     site n.  atom      mass           positions (alat units)
        1     Si  28.0860   tau(    1) = (    0.12500   -0.12500   -0.12500  )
        2     Si  28.0860   tau(    2) = (   -0.12500    0.12500    0.12500  )

     Computing dynamical matrix for
                    q = (   0.0000000   0.0000000   0.0000000 )

     49 Sym.Ops. (with q -> -q+G )

     G cutoff =  418.7317  (   8873 G-vectors)     FFT grid: ( 30, 30, 30)
     number of k points=    60

     PseudoPot. # 1 for Si read from file:
     ./si.cpi.UPF
     MD5 check sum: b49e38a2651755062821566f72dc82b2
     Pseudo is Norm-conserving, Zval =  4.0
     Generated by new atomic code, or converted to UPF format
     Using radial grid of  495 points,  2 beta functions with:
                l(1) =   1
                l(2) =   2

     Mode symmetry, O_h (m-3m)  point group:

     Electric field:
     Dielectric constant
     Born effective charges in two ways

     Atomic displacements:
     There are    2 irreducible representations

     Representation     1      3 modes -  To be done

[...]

     Alpha used in Ewald sum =   1.7000

     Electric Fields Calculation

      thresh= 1.000E-02 alpha_mix =  0.700 |ddv_scf|^2 =  2.703E-07

[...]

     End of electric fields calculation

          Dielectric constant in cartesian axis

          (      13.138616253       0.000000000      -0.000000000 )
          (       0.000000000      13.138616253       0.000000000 )
          (      -0.000000000       0.000000000      13.138616253 )

          Effective charges (d Force / dE) in cartesian axis

           atom      1   Si
      Ex  (       -0.00044       -0.00000       -0.00000 )
      Ey  (       -0.00000       -0.00044       -0.00000 )
      Ez  (       -0.00000       -0.00000       -0.00044 )
           atom      2   Si
      Ex  (       -0.00044       -0.00000       -0.00000 )
      Ey  (        0.00000       -0.00044        0.00000 )
      Ez  (        0.00000       -0.00000       -0.00044 )

     Representation #   1 modes #   1   2   3

     Self-consistent Calculation

[...]

     End of self-consistent calculation

     Convergence has been achieved

[...]

     Number of q in the star =    1
     List of q in the star:
          1   0.000000000   0.000000000   0.000000000

          Dielectric constant in cartesian axis

          (      13.138616253       0.000000000      -0.000000000 )
          (       0.000000000      13.138616253       0.000000000 )
          (      -0.000000000       0.000000000      13.138616253 )

          Effective charges (d Force / dE) in cartesian axis

[...]

          Effective charges (d P / du) in cartesian axis

           atom      1   Si
      Px  (       -0.00043        0.00000        0.00000 )
      Py  (       -0.00000       -0.00043       -0.00000 )
      Pz  (        0.00000       -0.00000       -0.00043 )
           atom      2   Si
      Px  (       -0.00043       -0.00000       -0.00000 )
      Py  (        0.00000       -0.00043        0.00000 )
      Pz  (        0.00000       -0.00000       -0.00043 )

     Diagonalizing the dynamical matrix

     q = (    0.000000000   0.000000000   0.000000000 )

     freq (    1) =      -0.053056 [THz] =      -1.769768 [cm-1]
     freq (    2) =      -0.053056 [THz] =      -1.769768 [cm-1]
     freq (    3) =      -0.053056 [THz] =      -1.769768 [cm-1]
     freq (    4) =      15.454302 [THz] =     515.500025 [cm-1]
     freq (    5) =      15.454302 [THz] =     515.500025 [cm-1]
     freq (    6) =      15.454302 [THz] =     515.500025 [cm-1]

     Mode symmetry, O_h (m-3m)  point group:

     freq (   1-   3) =         -1.8  [cm-1]   --> T_1u G_15  G_4- I
     freq (   4-   6) =        515.5  [cm-1]   --> T_2g G_25' G_5+ R

[...]

     Subspace diagonalization in iterative solution of the eigenvalue problem:
     a serial algorithm will be used

     Title:
     phonons for Si

     bravais-lattice index     =            0
     lattice parameter (alat)  =      10.1645  a.u.
     unit-cell volume          =     262.5448 (a.u.)^3
     number of atoms/cell      =            2
     number of atomic types    =            1
     number of electrons       =         8.00
     number of Kohn-Sham states=           34
     kinetic-energy cutoff     =      40.0000  Ry
     charge density cutoff     =     160.0000  Ry
     Exchange-correlation= PZ
                           (   1   1   0   0   0   0   0)

[...]

     atomic species   valence    mass     pseudopotential
        Si             4.00    28.08600     Si( 1.00)

     48 Sym. Ops., with inversion, found

[...]

     site n.     atom                  positions (alat units)
         1           Si  tau(   1) = (   0.1250000  -0.1250000  -0.1250000  )
         2           Si  tau(   2) = (  -0.1250000   0.1250000   0.1250000  )

     number of k points=   816

     Number of k-points >= 100: set verbosity='high' to print them.

     The potential is recalculated from file :
     ./_ph0/Si.q_2/Si.save/charge-density

     Starting wfcs are   18 atomic +   16 random wfcs

     Band Structure Calculation
     Davidson diagonalization with overlap

     ethr =  1.25E-10,  avg # of iterations = 14.7

     End of band structure calculation

     Number of k-points >= 100: set verbosity='high' to print the bands.

     highest occupied, lowest unoccupied level (ev):     6.2053    6.9068

     Writing output data file ./_ph0/Si.q_2/Si.save/

[...]

      6 Sym.Ops. (no q -> -q+G )

[...]

     Mode symmetry, C_3v (3m)   point group:

[...]

     Representation #   1 mode #   1

[...]

     freq (   1-   2) =         59.8  [cm-1]   --> E    L_3
     freq (   3-   3) =        120.6  [cm-1]   --> A_1  L_1
     freq (   4-   5) =        507.7  [cm-1]   --> E    L_3
     freq (   6-   6) =        508.2  [cm-1]   --> A_1  L_1

[...]

     freq (   1-   2) =         93.3  [cm-1]   --> E    L_3
     freq (   3-   3) =        230.1  [cm-1]   --> A_1  L_1
     freq (   4-   4) =        486.0  [cm-1]   --> A_1  L_1
     freq (   5-   6) =        497.2  [cm-1]   --> E    L_3

[...]

     Mode symmetry, C_3v (3m)   point group:

     freq (   1-   2) =        104.7  [cm-1]   --> E    L_3
     freq (   3-   3) =        320.1  [cm-1]   --> A_1  L_1
     freq (   4-   4) =        449.8  [cm-1]   --> A_1  L_1
     freq (   5-   6) =        492.4  [cm-1]   --> E    L_3

[...]

     Mode symmetry, D_3d (-3m)  point group:

[...]

     Mode symmetry, D_3d (-3m)  point group:

     freq (   1-   2) =        106.6  [cm-1]   --> E_u  L_3'
     freq (   3-   3) =        374.3  [cm-1]   --> A_1g L_1
     freq (   4-   4) =        413.6  [cm-1]   --> A_2u L_2'
     freq (   5-   6) =        491.4  [cm-1]   --> E_g  L_3

[...]

     Mode symmetry, C_4v (4mm)  point group:

[...]

     freq (   1-   2) =         79.6  [cm-1]   --> E    G_5 D_5
     freq (   3-   3) =        125.8  [cm-1]   --> A_1  G_1 D_1
     freq (   4-   5) =        499.1  [cm-1]   --> E    G_5 D_5
     freq (   6-   6) =        510.5  [cm-1]   --> B_2  G_4 D_2'

[...]

     Mode symmetry, C_s (m)     point group:

[...]

     freq (   1-   1) =        105.6  [cm-1]   --> A''
     freq (   2-   2) =        120.0  [cm-1]   --> A'
     freq (   3-   3) =        200.9  [cm-1]   --> A'
     freq (   4-   4) =        482.6  [cm-1]   --> A'
     freq (   5-   5) =        487.8  [cm-1]   --> A''
     freq (   6-   6) =        498.5  [cm-1]   --> A'

[...]

     Mode symmetry, C_2v (mm2)  point group:

[...]

     freq (   1-   1) =         88.9  [cm-1]   --> B_1  D_3  S_3
     freq (   2-   2) =        114.5  [cm-1]   --> B_2  D_4  S_4
     freq (   3-   3) =        172.3  [cm-1]   --> A_1  D_1  S_1
     freq (   4-   4) =        486.5  [cm-1]   --> B_2  D_4  S_4
     freq (   5-   5) =        499.8  [cm-1]   --> A_2  D_2  S_2
     freq (   6-   6) =        500.0  [cm-1]   --> A_1  D_1  S_1

[...]

     freq (   1-   2) =        124.8  [cm-1]   --> E    G_5 D_5
     freq (   3-   3) =        241.0  [cm-1]   --> A_1  G_1 D_1
     freq (   4-   5) =        475.6  [cm-1]   --> E    G_5 D_5
     freq (   6-   6) =        494.0  [cm-1]   --> B_2  G_4 D_2'

[...]

     Mode symmetry, C_4v (4mm)  point group:

     freq (   1-   2) =        138.1  [cm-1]   --> E    G_5 D_5
     freq (   3-   3) =        337.1  [cm-1]   --> A_1  G_1 D_1
     freq (   4-   4) =        461.8  [cm-1]   --> B_2  G_4 D_2'
     freq (   5-   6) =        464.7  [cm-1]   --> E    G_5 D_5

[...]

     freq (   1-   1) =        139.7  [cm-1]   --> A''
     freq (   2-   2) =        169.4  [cm-1]   --> A'
     freq (   3-   3) =        361.7  [cm-1]   --> A'
     freq (   4-   4) =        420.0  [cm-1]   --> A'
     freq (   5-   5) =        463.2  [cm-1]   --> A''
     freq (   6-   6) =        470.2  [cm-1]   --> A'

[...]

     Mode symmetry, C_2v (mm2)  point group:

     freq (   1-   1) =        142.8  [cm-1]   --> B_1  D_3  S_3
     freq (   2-   2) =        208.6  [cm-1]   --> B_2  D_4  S_4
     freq (   3-   3) =        364.2  [cm-1]   --> A_1  D_1  S_1
     freq (   4-   4) =        373.3  [cm-1]   --> B_2  D_4  S_4
     freq (   5-   5) =        463.7  [cm-1]   --> A_2  D_2  S_2
     freq (   6-   6) =        479.7  [cm-1]   --> A_1  D_1  S_1

[...]

     17 Sym.Ops. (with q -> -q+G )

[...]

     freq (   1-   1) =        135.0  [cm-1]   --> A'
     freq (   2-   2) =        153.6  [cm-1]   --> A''
     freq (   3-   3) =        243.5  [cm-1]   --> A'
     freq (   4-   4) =        457.4  [cm-1]   --> A''
     freq (   5-   5) =        482.8  [cm-1]   --> A'
     freq (   6-   6) =        485.4  [cm-1]   --> A''

[...]

     No symmetry!

[...]

     Mode symmetry, C_1 (1)     point group:

[...]

     freq (   1-   1) =        147.7  [cm-1]   --> A
     freq (   2-   2) =        180.9  [cm-1]   --> A
     freq (   3-   3) =        294.3  [cm-1]   --> A
     freq (   4-   4) =        421.9  [cm-1]   --> A
     freq (   5-   5) =        475.8  [cm-1]   --> A
     freq (   6-   6) =        481.8  [cm-1]   --> A

[...]

     freq (   1-   1) =        162.9  [cm-1]   --> A''
     freq (   2-   2) =        169.2  [cm-1]   --> A'
     freq (   3-   3) =        316.3  [cm-1]   --> A''
     freq (   4-   4) =        426.4  [cm-1]   --> A'
     freq (   5-   5) =        469.6  [cm-1]   --> A''
     freq (   6-   6) =        471.4  [cm-1]   --> A'

[...]

     No symmetry!

[...]

     Mode symmetry, C_1 (1)     point group:

     freq (   1-   1) =        168.5  [cm-1]   --> A
     freq (   2-   2) =        203.9  [cm-1]   --> A
     freq (   3-   3) =        336.1  [cm-1]   --> A
     freq (   4-   4) =        383.8  [cm-1]   --> A
     freq (   5-   5) =        466.5  [cm-1]   --> A
     freq (   6-   6) =        474.4  [cm-1]   --> A

[...]

     Representation #   6 mode #   6

[...]

     Mode symmetry, C_s (m)     point group:

     freq (   1-   1) =        166.8  [cm-1]   --> A'
     freq (   2-   2) =        208.7  [cm-1]   --> A''
     freq (   3-   3) =        320.7  [cm-1]   --> A'
     freq (   4-   4) =        386.1  [cm-1]   --> A''
     freq (   5-   5) =        467.8  [cm-1]   --> A''
     freq (   6-   6) =        478.7  [cm-1]   --> A'

[...]

     Calculation of q =   -0.5000000  -1.0000000   0.0000000

     Title:
     phonons for Si

     bravais-lattice index     =            0
     lattice parameter (alat)  =      10.1645  a.u.
     unit-cell volume          =     262.5448 (a.u.)^3
     number of atoms/cell      =            2
     number of atomic types    =            1
     number of electrons       =         8.00
     number of Kohn-Sham states=           34
     kinetic-energy cutoff     =      40.0000  Ry
     charge density cutoff     =     160.0000  Ry
     Exchange-correlation= PZ
                           (   1   1   0   0   0   0   0)

[...]

     atomic species   valence    mass     pseudopotential
        Si             4.00    28.08600     Si( 1.00)

     48 Sym. Ops., with inversion, found

[...]

     site n.     atom                  positions (alat units)
         1           Si  tau(   1) = (   0.1250000  -0.1250000  -0.1250000  )
         2           Si  tau(   2) = (  -0.1250000   0.1250000   0.1250000  )

     number of k points=   512

     Number of k-points >= 100: set verbosity='high' to print them.

     The potential is recalculated from file :
     ./_ph0/Si.q_29/Si.save/charge-density

     Starting wfcs are   18 atomic +   16 random wfcs

     Band Structure Calculation
     Davidson diagonalization with overlap

     ethr =  1.25E-10,  avg # of iterations = 14.7

     End of band structure calculation

     Number of k-points >= 100: set verbosity='high' to print the bands.

     highest occupied, lowest unoccupied level (ev):     6.2053    6.9068

     Writing output data file ./_ph0/Si.q_29/Si.save/

     phonons for Si

     bravais-lattice index     =            0
     lattice parameter (alat)  =      10.1645  a.u.
     unit-cell volume          =     262.5448 (a.u.)^3
     number of atoms/cell      =            2
     number of atomic types    =            1
     kinetic-energy cut-off    =      40.0000  Ry
     charge density cut-off    =     160.0000  Ry
     convergence threshold     =      1.0E-15
     beta                      =       0.7000
     number of iterations used =            4
     Exchange-correlation= PZ
                           (   1   1   0   0   0   0   0)

     celldm(1)=   10.16454  celldm(2)=    0.00000  celldm(3)=    0.00000
     celldm(4)=    0.00000  celldm(5)=    0.00000  celldm(6)=    0.00000

     crystal axes: (cart. coord. in units of alat)
               a(1) = ( -0.5000  0.0000  0.5000 )
               a(2) = (  0.0000  0.5000  0.5000 )
               a(3) = ( -0.5000  0.5000  0.0000 )

     reciprocal axes: (cart. coord. in units 2 pi/alat)
               b(1) = ( -1.0000 -1.0000  1.0000 )
               b(2) = (  1.0000  1.0000  1.0000 )
               b(3) = ( -1.0000  1.0000 -1.0000 )

     Atoms inside the unit cell:

     Cartesian axes

     site n.  atom      mass           positions (alat units)
        1     Si  28.0860   tau(    1) = (    0.12500   -0.12500   -0.12500  )
        2     Si  28.0860   tau(    2) = (   -0.12500    0.12500    0.12500  )

     Computing dynamical matrix for
                    q = (  -0.5000000  -1.0000000   0.0000000 )

      8 Sym.Ops. (no q -> -q+G )

     G cutoff =  418.7317  (   8873 G-vectors)     FFT grid: ( 30, 30, 30)
     number of k points=   512

     PseudoPot. # 1 for Si read from file:
     ./si.cpi.UPF
     MD5 check sum: b49e38a2651755062821566f72dc82b2
     Pseudo is Norm-conserving, Zval =  4.0
     Generated by new atomic code, or converted to UPF format
     Using radial grid of  495 points,  2 beta functions with:
                l(1) =   1
                l(2) =   2

     Atomic displacements:
     There are    3 irreducible representations

[...]

     Representation     3      2 modes -  To be done

     Alpha used in Ewald sum =   1.7000

[...]

     Representation #   3 modes #   5   6

     Self-consistent Calculation

[...]

      thresh= 6.044E-09 alpha_mix =  0.700 |ddv_scf|^2 =  1.059E-16

     End of self-consistent calculation

     Convergence has been achieved

     Number of q in the star =    6
     List of q in the star:
          1  -0.500000000  -1.000000000   0.000000000
          2   0.000000000   1.000000000   0.500000000
          3   0.500000000  -1.000000000   0.000000000
          4   0.000000000   1.000000000  -0.500000000
          5  -1.000000000  -0.500000000   0.000000000
          6   0.000000000  -0.500000000  -1.000000000

     Diagonalizing the dynamical matrix

     q = (   -0.500000000  -1.000000000   0.000000000 )

     freq (    1) =       5.975377 [THz] =     199.317133 [cm-1]
     freq (    2) =       5.975377 [THz] =     199.317133 [cm-1]
     freq (    3) =      10.578442 [THz] =     352.858858 [cm-1]
     freq (    4) =      10.578442 [THz] =     352.858858 [cm-1]
     freq (    5) =      14.037181 [THz] =     468.229956 [cm-1]
     freq (    6) =      14.037181 [THz] =     468.229956 [cm-1]

     INITIALIZATION:

     DYNAMICAL MATRIX:

      General routines

   This run was terminated on:  13:13:49   2Feb2021

   JOB DONE.